
Gurobi 13.0.2 (win64) logging started Thu Jul 23 17:06:01 2026

Set parameter LogFile to value "E:\codes\ExactEBRP\results\gf_gurobi_performance_recovery_round29\runs\stage2__moderate_seed5302__c3_replica__300s\external\native_logs\R.0.0.0.1.0.1.1_lp.gurobi.log"
Gurobi Optimizer version 13.0.2 build v13.0.2rc1 (win64 - Windows 10.0 (19045.2))

CPU model: 12th Gen Intel(R) Core(TM) i7-12700KF, instruction set [SSE2|AVX|AVX2]
Thread count: 12 physical cores, 20 logical processors, using up to 1 threads

Non-default parameters:
TimeLimit  231.9498443
MIPGap  0
MIPGapAbs  0
LogToConsole  0
Threads  1

Optimize a model with 11932 rows, 3382 columns and 67410 nonzeros (Min)
Model fingerprint: 0x7afac765
Model has 21 linear objective coefficients
Coefficient statistics:
  Matrix range     [9e-03, 2e+04]
  Objective range  [9e-03, 1e+00]
  Bounds range     [9e-03, 2e+02]
  RHS range        [9e-03, 5e+04]

Presolve removed 451 rows and 102 columns
Presolve time: 0.04s
Presolved: 11481 rows, 3469 columns, 66341 nonzeros

Iteration    Objective       Primal Inf.    Dual Inf.      Time
       0    9.0866302e-03   1.886208e+02   0.000000e+00      0s
    4084    1.5715174e-02   0.000000e+00   0.000000e+00      0s

Solved in 4084 iterations and 0.27 seconds (0.84 work units)
Optimal objective  1.571517439e-02

User-callback calls 4228, time in user-callback 0.00 sec
